22
13
20 7 13 21 0 14 2 16 4 12 17 9
1 6 2 9 3 7 0 11 19 4 8 16 12 5 10 13 18 15 14 21 20 17
8 1 6 16 0 14 4 13 5 3 19 11 15 18 20 17 2 10 7 9
11 9 17 14 0 15 10 5 16 8
1 14 8 15 6 18 11 0 16 13 9 21 7 5 17 10
18 10 1 6 16 5 12 20 17
10 0 21 20 13 5 9 8 16 15 2 3 12 1
9 12 11 20 10 21 5 0 8 6 15 17 4
9 6 8 19 17 14 4 11 1 16 21 2 10 0
20 9 4 7 10 13 18 3 16 12 5 14 1 0 11 17 2 19
10 19 21 8 6 4 5 17 15 0 7 18 12 14 1 20 11 2 3 9 13 16
11 2
5 11 1 4 10 15 2 21 16 14 0 7 13 6 20
